c uprop, v00.0, 
c reading from data/prog886.c.cnf
c done reading: 0.002906
p cnf 163 765
-74 -88 0
74 88 0
-64 -82 0
64 82 0
-76 -78 0
76 78 0
-69 -72 0
69 72 0
-67 -80 0
67 80 0
-62 -70 0
62 70 0
-85 -91 0
85 91 0
88 -92 0
-88 92 0
-88 -93 0
88 93 0
-82 -88 94 0
-82 -92 94 0
-88 -92 94 0
82 88 -94 0
82 92 -94 0
88 92 -94 0
82 -94 -95 0
88 -94 -95 0
92 -94 -95 0
-82 94 95 0
-88 94 95 0
-92 94 95 0
-82 -88 -92 95 0
82 88 92 -95 0
-78 -82 96 0
-78 -94 96 0
-82 -94 96 0
78 82 -96 0
78 94 -96 0
82 94 -96 0
78 -96 -97 0
82 -96 -97 0
94 -96 -97 0
-78 96 97 0
-82 96 97 0
-94 96 97 0
-78 -82 -94 97 0
78 82 94 -97 0
-72 -78 98 0
-72 -96 98 0
-78 -96 98 0
72 78 -98 0
72 96 -98 0
78 96 -98 0
72 -98 -99 0
78 -98 -99 0
96 -98 -99 0
-72 98 99 0
-78 98 99 0
-96 98 99 0
-72 -78 -96 99 0
72 78 96 -99 0
-67 -72 100 0
-67 -98 100 0
-72 -98 100 0
67 72 -100 0
67 98 -100 0
72 98 -100 0
67 -100 -101 0
72 -100 -101 0
98 -100 -101 0
-67 100 101 0
-72 100 101 0
-98 100 101 0
-67 -72 -98 101 0
67 72 98 -101 0
-62 -67 102 0
-62 -100 102 0
-67 -100 102 0
62 67 -102 0
62 100 -102 0
67 100 -102 0
62 -102 -103 0
67 -102 -103 0
100 -102 -103 0
-62 102 103 0
-67 102 103 0
-100 102 103 0
-62 -67 -100 103 0
62 67 100 -103 0
-62 -85 104 0
-85 -102 104 0
-62 -102 104 0
62 85 -104 0
85 102 -104 0
62 102 -104 0
85 -90 -104 0
62 -90 -104 0
-90 102 -104 0
-85 90 104 0
-62 90 104 0
90 -102 104 0
-62 -85 90 -102 0
62 85 -90 102 0
85 -87 0
-87 104 0
-85 87 -104 0
-81 -85 -104 0
-81 85 104 0
81 -85 104 0
81 85 -104 0
-77 95 0
77 -95 0
-71 -95 0
71 95 0
66 -88 -97 0
66 -77 -97 0
66 -77 -88 0
-66 88 97 0
-66 77 97 0
-66 77 88 0
-61 -66 97 0
-61 -66 88 0
-61 -66 77 0
61 66 -97 0
61 66 -88 0
61 66 -77 0
61 -77 -88 -97 0
-61 77 88 97 0
-82 84 -99 0
-66 84 -99 0
-66 -82 84 0
82 -84 99 0
66 -84 99 0
66 82 -84 0
-60 -84 99 0
-60 82 -84 0
-60 66 -84 0
60 84 -99 0
60 -82 84 0
60 -66 84 0
60 -66 -82 -99 0
-60 66 82 99 0
59 -78 -101 0
59 -84 -101 0
59 -78 -84 0
-59 78 101 0
-59 84 101 0
-59 78 84 0
-58 -59 101 0
-58 -59 78 0
-58 -59 84 0
58 59 -101 0
58 59 -78 0
58 59 -84 0
58 -78 -84 -101 0
-58 78 84 101 0
57 -72 -103 0
57 -59 -103 0
57 -59 -72 0
-57 72 103 0
-57 59 103 0
-57 59 72 0
-56 -57 103 0
-56 -57 72 0
-56 -57 59 0
56 57 -103 0
56 57 -72 0
56 57 -59 0
56 -59 -72 -103 0
-56 59 72 103 0
55 -67 -90 0
55 -57 -90 0
55 -57 -67 0
-55 67 90 0
-55 57 90 0
-55 57 67 0
-54 -55 90 0
-54 -55 67 0
-54 -55 57 0
54 55 -90 0
54 55 -67 0
54 55 -57 0
54 -57 -67 -90 0
-54 57 67 90 0
53 -62 -81 0
53 -55 -81 0
53 -55 -62 0
-53 62 81 0
-53 55 81 0
-53 55 62 0
-52 -53 81 0
-52 -53 62 0
-52 -53 55 0
52 53 -81 0
52 53 -62 0
52 53 -55 0
52 -55 -62 -81 0
-52 55 62 81 0
51 -85 -87 0
51 -53 -87 0
51 -53 -85 0
-51 85 87 0
-51 53 87 0
-51 53 85 0
-50 -51 87 0
-50 -51 85 0
-50 -51 53 0
50 51 -87 0
50 51 -85 0
50 51 -53 0
50 -53 -85 -87 0
-50 53 85 87 0
-49 58 0
49 -58 0
-48 -58 0
48 58 0
47 -56 -88 0
47 -49 -56 0
47 -49 -88 0
-47 56 88 0
-47 49 56 0
-47 49 88 0
-46 -47 56 0
-46 -47 88 0
-46 -47 49 0
46 47 -56 0
46 47 -88 0
46 47 -49 0
46 -49 -56 -88 0
-46 49 56 88 0
45 -54 -82 0
45 -47 -54 0
45 -47 -82 0
-45 54 82 0
-45 47 54 0
-45 47 82 0
-44 -45 54 0
-44 -45 82 0
-44 -45 47 0
44 45 -54 0
44 45 -82 0
44 45 -47 0
44 -47 -54 -82 0
-44 47 54 82 0
43 -52 -78 0
43 -45 -52 0
43 -45 -78 0
-43 52 78 0
-43 45 52 0
-43 45 78 0
-42 -43 52 0
-42 -43 78 0
-42 -43 45 0
42 43 -52 0
42 43 -78 0
42 43 -45 0
42 -45 -52 -78 0
-42 45 52 78 0
41 -50 -72 0
41 -43 -50 0
41 -43 -72 0
-41 50 72 0
-41 43 50 0
-41 43 72 0
-40 -41 50 0
-40 -41 72 0
-40 -41 43 0
40 41 -50 0
40 41 -72 0
40 41 -43 0
40 -43 -50 -72 0
-40 43 50 72 0
39 -51 -67 0
39 -41 -51 0
39 -41 -67 0
-39 51 67 0
-39 41 51 0
-39 41 67 0
-38 -39 51 0
-38 -39 67 0
-38 -39 41 0
38 39 -51 0
38 39 -67 0
38 39 -41 0
38 -41 -51 -67 0
-38 41 51 67 0
-37 62 0
-37 39 0
37 -39 -62 0
-39 -62 -105 0
39 62 -105 0
39 -62 105 0
-39 62 105 0
85 -106 0
37 -106 0
-37 -85 106 0
-37 -85 -107 0
37 85 -107 0
37 -85 107 0
-37 85 107 0
-93 -108 0
93 108 0
-71 -109 0
71 109 0
-61 -110 0
61 110 0
-60 -111 0
60 111 0
-48 -112 0
48 112 0
-46 -113 0
46 113 0
-44 -114 0
44 114 0
-42 -115 0
42 115 0
-40 -116 0
40 116 0
-38 -117 0
38 117 0
-105 -118 0
105 118 0
-107 -119 0
107 119 0
-106 -120 0
106 120 0
-121 -123 0
-123 -124 0
121 123 124 0
121 124 -126 0
-121 -124 -126 0
-121 124 126 0
121 -124 126 0
123 -127 0
-127 -128 0
-123 127 128 0
-123 128 -130 0
123 -128 -130 0
123 128 130 0
-123 -128 130 0
127 -131 0
-131 -132 0
-127 131 132 0
-127 132 -134 0
127 -132 -134 0
127 132 134 0
-127 -132 134 0
131 -135 0
-135 -136 0
-131 135 136 0
-131 136 -138 0
131 -136 -138 0
131 136 138 0
-131 -136 138 0
-89 135 0
-89 -139 0
89 -135 139 0
-83 -135 139 0
-83 135 -139 0
83 135 139 0
83 -135 -139 0
-79 89 0
-79 -141 0
79 -89 141 0
-73 -89 141 0
-73 89 -141 0
73 89 141 0
73 -89 -141 0
-68 79 0
-68 -143 0
68 -79 143 0
-63 -79 143 0
-63 79 -143 0
63 79 143 0
63 -79 -143 0
-86 128 0
-86 121 0
86 -121 -128 0
-121 -122 -128 0
121 -122 128 0
121 122 -128 0
-121 122 128 0
-124 125 -132 0
-86 125 -132 0
-86 -124 125 0
124 -125 132 0
86 -125 132 0
86 124 -125 0
-125 -129 132 0
124 -125 -129 0
86 -125 -129 0
125 129 -132 0
-124 125 129 0
-86 125 129 0
-86 -124 129 -132 0
86 124 -129 132 0
-128 133 -136 0
-125 133 -136 0
-125 -128 133 0
128 -133 136 0
125 -133 136 0
125 128 -133 0
-133 136 -137 0
128 -133 -137 0
125 -133 -137 0
133 -136 137 0
-128 133 137 0
-125 133 137 0
-125 -128 -136 137 0
125 128 136 -137 0
-132 -139 140 0
-133 -139 140 0
-132 -133 140 0
132 139 -140 0
133 139 -140 0
132 133 -140 0
139 -140 -142 0
132 -140 -142 0
133 -140 -142 0
-139 140 142 0
-132 140 142 0
-133 140 142 0
-132 -133 -139 142 0
132 133 139 -142 0
-136 -141 144 0
-140 -141 144 0
-136 -140 144 0
136 141 -144 0
140 141 -144 0
136 140 -144 0
141 -144 -145 0
136 -144 -145 0
140 -144 -145 0
-141 144 145 0
-136 144 145 0
-140 144 145 0
-136 -140 -141 145 0
136 140 141 -145 0
-139 -143 146 0
-143 -144 146 0
-139 -144 146 0
139 143 -146 0
143 144 -146 0
139 144 -146 0
143 -146 -147 0
139 -146 -147 0
144 -146 -147 0
-143 146 147 0
-139 146 147 0
-144 146 147 0
-139 -143 -144 147 0
139 143 144 -147 0
141 -148 0
146 -148 0
-141 -146 148 0
-141 -146 -149 0
141 146 -149 0
-141 146 149 0
141 -146 149 0
143 -150 0
148 -150 0
-143 -148 150 0
-143 -148 -151 0
143 148 -151 0
-143 148 151 0
143 -148 151 0
129 -152 0
121 -152 0
-121 -129 152 0
-121 -129 -153 0
121 129 -153 0
121 -129 153 0
-121 129 153 0
-124 -137 154 0
-137 -152 154 0
-124 -152 154 0
124 137 -154 0
137 152 -154 0
124 152 -154 0
137 -154 -155 0
124 -154 -155 0
152 -154 -155 0
-137 154 155 0
-124 154 155 0
-152 154 155 0
-124 -137 -152 155 0
124 137 152 -155 0
-128 -142 156 0
-142 -154 156 0
-128 -154 156 0
128 142 -156 0
142 154 -156 0
128 154 -156 0
142 -156 -157 0
128 -156 -157 0
154 -156 -157 0
-142 156 157 0
-128 156 157 0
-154 156 157 0
-128 -142 -154 157 0
128 142 154 -157 0
-132 -145 158 0
-145 -156 158 0
-132 -156 158 0
132 145 -158 0
145 156 -158 0
132 156 -158 0
145 -158 -159 0
132 -158 -159 0
156 -158 -159 0
-145 158 159 0
-132 158 159 0
-156 158 159 0
-132 -145 -156 159 0
132 145 156 -159 0
-136 -147 160 0
-147 -158 160 0
-136 -158 160 0
136 147 -160 0
147 158 -160 0
136 158 -160 0
147 -160 -161 0
136 -160 -161 0
158 -160 -161 0
-147 160 161 0
-136 160 161 0
-158 160 161 0
-136 -147 -158 161 0
136 147 158 -161 0
75 -139 -149 0
75 -149 -160 0
75 -139 -160 0
-75 139 149 0
-75 149 160 0
-75 139 160 0
-75 149 -162 0
-75 139 -162 0
-75 160 -162 0
75 -149 162 0
75 -139 162 0
75 -160 162 0
-139 -149 -160 162 0
139 149 160 -162 0
65 -141 -151 0
65 -75 -151 0
65 -75 -141 0
-65 141 151 0
-65 75 151 0
-65 75 141 0
-65 151 -163 0
-65 141 -163 0
-65 75 -163 0
65 -151 163 0
65 -141 163 0
65 -75 163 0
-75 -141 -151 163 0
75 141 151 -163 0
36 -143 -150 0
36 -65 -150 0
36 -65 -143 0
-36 143 150 0
-36 65 150 0
-36 65 143 0
-35 -36 150 0
-35 -36 143 0
-35 -36 65 0
35 36 -150 0
35 36 -143 0
35 36 -65 0
35 -65 -143 -150 0
-35 65 143 150 0
-34 -121 0
-34 -124 0
34 121 124 0
-33 121 124 0
-33 -121 -124 0
33 -121 124 0
33 121 -124 0
-32 34 0
-32 -122 0
32 -34 122 0
-31 -34 122 0
-31 34 -122 0
31 34 122 0
31 -34 -122 0
-30 32 0
-30 -153 0
30 -32 153 0
-29 -32 153 0
-29 32 -153 0
29 32 153 0
29 -32 -153 0
-28 30 0
-28 -155 0
28 -30 155 0
-27 -30 155 0
-27 30 -155 0
27 30 155 0
27 -30 -155 0
-26 28 0
-26 -157 0
26 -28 157 0
-25 -28 157 0
-25 28 -157 0
25 28 157 0
25 -28 -157 0
-24 26 0
-24 -159 0
24 -26 159 0
-23 -26 159 0
-23 26 -159 0
23 26 159 0
23 -26 -159 0
-22 24 0
-22 -161 0
22 -24 161 0
-21 -24 161 0
-21 24 -161 0
21 24 161 0
21 -24 -161 0
-20 22 0
-20 -162 0
20 -22 162 0
-19 -22 162 0
-19 22 -162 0
19 22 162 0
19 -22 -162 0
-18 20 0
-18 -163 0
18 -20 163 0
-17 -20 163 0
-17 20 -163 0
17 20 163 0
17 -20 -163 0
-16 18 0
-16 -35 0
16 -18 35 0
-15 -18 35 0
-15 18 -35 0
15 18 35 0
15 -18 -35 0
-14 16 0
-14 -36 0
14 -16 36 0
-13 -16 36 0
-13 16 -36 0
13 16 36 0
13 -16 -36 0
-12 93 0
-12 121 0
12 -93 -121 0
-93 121 0
93 -121 0
11 -71 -124 0
11 -12 -71 0
11 -12 -124 0
-11 71 124 0
-11 12 71 0
-11 12 124 0
11 -71 0
11 -124 0
11 -12 0
-12 -71 -124 0
10 -61 -122 0
10 -11 -61 0
10 -11 -122 0
-10 61 122 0
-10 11 61 0
-10 11 122 0
-10 61 0
-10 122 0
-10 11 0
11 61 122 0
9 -60 -153 0
9 -10 -60 0
9 -10 -153 0
-9 60 153 0
-9 10 60 0
-9 10 153 0
9 -60 0
9 -153 0
9 -10 0
-10 -60 -153 0
8 -48 -155 0
8 -9 -48 0
8 -9 -155 0
-8 48 155 0
-8 9 48 0
-8 9 155 0
-8 48 0
-8 155 0
-8 9 0
9 48 155 0
7 -46 -157 0
7 -8 -46 0
7 -8 -157 0
-7 46 157 0
-7 8 46 0
-7 8 157 0
-7 46 0
-7 157 0
-7 8 0
8 46 157 0
6 -44 -159 0
6 -7 -44 0
6 -7 -159 0
-6 44 159 0
-6 7 44 0
-6 7 159 0
-6 44 0
-6 159 0
-6 7 0
7 44 159 0
5 -42 -161 0
5 -6 -42 0
5 -6 -161 0
-5 42 161 0
-5 6 42 0
-5 6 161 0
5 -42 0
5 -161 0
5 -6 0
-6 -42 -161 0
4 -40 -162 0
4 -5 -40 0
4 -5 -162 0
-4 40 162 0
-4 5 40 0
-4 5 162 0
4 -40 0
4 -162 0
4 -5 0
-5 -40 -162 0
3 -38 -163 0
3 -4 -38 0
3 -4 -163 0
-3 38 163 0
-3 4 38 0
-3 4 163 0
3 -38 0
3 -163 0
3 -4 0
-4 -38 -163 0
2 -35 -105 0
2 -3 -105 0
2 -3 -35 0
-2 35 105 0
-2 3 105 0
-2 3 35 0
2 -105 0
2 -35 0
2 -3 0
-3 -35 -105 0
1 -36 -107 0
1 -2 -107 0
1 -2 -36 0
-1 36 107 0
-1 2 107 0
-1 2 36 0
1 -107 0
1 -36 0
1 -2 0
-2 -36 -107 0
-1 -106 0
1 -106 0
-1 106 0
